(set-info :smt-lib-version 2.6)
(set-logic QF_S)
(set-info :source |
Generated by: Hongjian Jiang, Oliver Markgraf, Daniel Stan, Anthony W. Lin, Philipp Ruemmer
Generated on: 2025-04-11
Application: Using String Solvers to solve RMC problems encoded as CHC over Strings
Target solver: cvc5, OSTRICH, Z3, Z3alpha, Z3-noodler
Time limit: 60.0
Benchmarks are extracted by running HornStr https://arg-git.informatik.uni-kl.de/pub/string-chc-lib on all benchmarks
provided in the repository and gathering the string queries sent to the string solvers.
|)
(set-info :license "https://creativecommons.org/licenses/by/4.0/")
(set-info :category "industrial")
(declare-fun varout () String)
(assert (let ((a!1 (re.* (re.union (re.union (str.to_re "M") (str.to_re "U"))
                           (str.to_re "I")))))
  (str.in_re varout a!1)))
(declare-fun varin () String)
(assert (let ((a!1 (re.* (re.union (re.union (str.to_re "M") (str.to_re "U"))
                           (str.to_re "I")))))
  (str.in_re varin a!1)))
(declare-fun Y () String)
(declare-fun A () String)
(declare-fun X () String)
(declare-fun isin () Bool)
(declare-fun isout () Bool)
(assert (and true
     (= Y (str.++ "M" A))
     (= X (str.++ "M" A A))
     (= Y varin)
     isin
     (= X varout)
     isout))
(push 1)
(assert (let ((a!1 (re.++ (re.* (re.union (str.to_re "M") (str.to_re "U")))
                  (str.to_re "I"))))
(let ((a!2 (re.union (str.to_re "I")
                     (re.++ (re.union (str.to_re "M") (str.to_re "U")) a!1))))
(let ((a!3 (re.++ (re.* (re.union (str.to_re "M") (str.to_re "U"))) a!2)))
(let ((a!4 (re.union (re.union (str.to_re "M") (str.to_re "U"))
                     (re.++ (str.to_re "I") a!3))))
(let ((a!5 (re.++ (re.* a!4) (re.union (str.to_re "") (re.++ a!4 (re.* a!4))))))
  (str.in_re varin (re.++ a!3 a!5))))))))
(assert (let ((a!1 (re.++ (re.union (str.to_re "M") (str.to_re "U"))
                  (re.* (re.union (str.to_re "M") (str.to_re "U")))))
      (a!3 (re.++ (re.* (re.union (str.to_re "M") (str.to_re "U")))
                  (str.to_re "I"))))
(let ((a!2 (re.++ (re.* (re.union (str.to_re "M") (str.to_re "U")))
                  (re.union (str.to_re "") a!1)))
      (a!4 (re.union (str.to_re "I")
                     (re.++ (re.union (str.to_re "M") (str.to_re "U")) a!3))))
(let ((a!5 (re.++ (re.* (re.union (str.to_re "M") (str.to_re "U"))) a!4)))
(let ((a!6 (re.union (re.union (str.to_re "M") (str.to_re "U"))
                     (re.++ (str.to_re "I") a!5))))
(let ((a!7 (re.++ a!6 (re.++ (re.* a!6) (re.++ (str.to_re "I") a!2)))))
(let ((a!8 (re.++ (re.* a!6) (re.union (re.++ (str.to_re "I") a!2) a!7))))
  (str.in_re varout (re.union a!2 (re.++ a!5 a!8))))))))))
(set-info :status unknown)
(check-sat)
(pop 1)
(push 1)
(assert (let ((a!1 (re.++ (re.* (re.union (str.to_re "M") (str.to_re "U")))
                  (str.to_re "I")))
      (a!4 (re.* (re.union (re.union (str.to_re "M") (str.to_re "U"))
                           (str.to_re "I")))))
(let ((a!2 (re.union (str.to_re "I")
                     (re.++ (re.union (str.to_re "M") (str.to_re "U")) a!1)))
      (a!5 (re.++ (re.union (re.union (str.to_re "M") (str.to_re "U"))
                            (str.to_re "I"))
                  a!4)))
(let ((a!3 (re.++ (re.* (re.union (str.to_re "M") (str.to_re "U"))) a!2)))
(let ((a!6 (re.++ a!3 (re.++ a!4 (re.union (str.to_re "") a!5)))))
  (str.in_re varin a!6))))))
(assert (let ((a!1 (re.++ (re.union (str.to_re "M") (str.to_re "U"))
                  (re.* (re.union (str.to_re "M") (str.to_re "U"))))))
(let ((a!2 (re.++ (re.* (re.union (str.to_re "M") (str.to_re "U")))
                  (re.union (str.to_re "") a!1))))
  (str.in_re varout a!2))))
(set-info :status unknown)
(check-sat)
(pop 1)
(push 1)
(assert (let ((a!1 (re.++ (re.* (re.union (str.to_re "M") (str.to_re "U")))
                  (str.to_re "I"))))
(let ((a!2 (re.union (str.to_re "I")
                     (re.++ (re.union (str.to_re "M") (str.to_re "U")) a!1))))
(let ((a!3 (re.++ (re.* (re.union (str.to_re "M") (str.to_re "U"))) a!2)))
(let ((a!4 (re.union (re.union (str.to_re "U") (str.to_re "I"))
                     (re.++ (str.to_re "M") a!3))))
(let ((a!5 (re.++ (re.* a!4) (re.union (str.to_re "") (re.++ a!4 (re.* a!4))))))
  (str.in_re varin (re.++ a!3 a!5))))))))
(assert (let ((a!1 (re.++ (re.union (str.to_re "M") (str.to_re "U"))
                  (re.* (re.union (str.to_re "M") (str.to_re "U")))))
      (a!3 (re.++ (re.* (re.union (str.to_re "M") (str.to_re "U")))
                  (str.to_re "I"))))
(let ((a!2 (re.++ (re.* (re.union (str.to_re "M") (str.to_re "U")))
                  (re.union (str.to_re "") a!1)))
      (a!4 (re.union (str.to_re "I")
                     (re.++ (re.union (str.to_re "M") (str.to_re "U")) a!3))))
(let ((a!5 (re.++ (re.* (re.union (str.to_re "M") (str.to_re "U"))) a!4)))
(let ((a!6 (re.union (re.union (str.to_re "U") (str.to_re "I"))
                     (re.++ (str.to_re "M") a!5))))
(let ((a!7 (re.++ a!6 (re.++ (re.* a!6) (re.++ (str.to_re "M") a!2)))))
(let ((a!8 (re.++ (re.* a!6) (re.union (re.++ (str.to_re "M") a!2) a!7))))
  (str.in_re varout (re.union a!2 (re.++ a!5 a!8))))))))))
(set-info :status unknown)
(check-sat)
(pop 1)
(push 1)
(assert (let ((a!1 (re.* (re.++ (str.to_re "U")
                        (re.union (str.to_re "M") (str.to_re "U")))))
      (a!2 (re.union (re.union (str.to_re "M") (str.to_re "I"))
                     (re.++ (str.to_re "U") (str.to_re "I")))))
(let ((a!3 (re.++ (re.++ (str.to_re "U")
                         (re.union (str.to_re "M") (str.to_re "U")))
                  (re.++ a!1 a!2)))
      (a!5 (re.union (re.union (str.to_re "M") (str.to_re "U"))
                     (re.++ (str.to_re "I") (re.++ a!1 a!2)))))
(let ((a!4 (re.union (str.to_re "I")
                     (re.++ (re.union (str.to_re "M") (str.to_re "U"))
                            (re.++ a!1 (re.union a!2 a!3)))))
      (a!6 (re.++ (re.* a!5) (re.union (str.to_re "") (re.++ a!5 (re.* a!5))))))
  (str.in_re varin (re.++ a!4 a!6))))))
(assert (let ((a!1 (re.* (re.++ (str.to_re "U")
                        (re.union (str.to_re "M") (str.to_re "U")))))
      (a!5 (re.union (re.union (str.to_re "M") (str.to_re "I"))
                     (re.++ (str.to_re "U") (str.to_re "I")))))
(let ((a!2 (re.++ (re.++ (str.to_re "U")
                         (re.union (str.to_re "M") (str.to_re "U")))
                  (re.++ a!1 (re.union (str.to_re "") (str.to_re "U")))))
      (a!6 (re.++ (re.++ (str.to_re "U")
                         (re.union (str.to_re "M") (str.to_re "U")))
                  (re.++ a!1 a!5)))
      (a!8 (re.union (re.union (str.to_re "M") (str.to_re "U"))
                     (re.++ (str.to_re "I") (re.++ a!1 a!5))))
      (a!9 (re.++ (str.to_re "I")
                  (re.++ a!1 (re.union (str.to_re "") (str.to_re "U"))))))
(let ((a!3 (re.++ a!1 (re.union (re.union (str.to_re "") (str.to_re "U")) a!2)))
      (a!7 (re.union (str.to_re "I")
                     (re.++ (re.union (str.to_re "M") (str.to_re "U"))
                            (re.++ a!1 (re.union a!5 a!6)))))
      (a!10 (re.union a!9 (re.++ a!8 (re.++ (re.* a!8) a!9)))))
(let ((a!4 (re.union (str.to_re "")
                     (re.++ (re.union (str.to_re "M") (str.to_re "U")) a!3))))
(let ((a!11 (re.union a!4 (re.++ a!7 (re.++ (re.* a!8) a!10)))))
  (str.in_re varout a!11)))))))
(set-info :status unknown)
(check-sat)
(pop 1)
(push 1)
(assert (let ((a!1 (re.++ (str.to_re "U")
                  (re.++ (re.* (str.to_re "U")) (str.to_re "M"))))
      (a!5 (re.++ (str.to_re "U")
                  (re.++ (re.* (str.to_re "U")) (str.to_re "I")))))
(let ((a!2 (re.++ (re.union (str.to_re "M") (str.to_re "U"))
                  (re.++ (re.* (str.to_re "U")) (re.union (str.to_re "M") a!1))))
      (a!6 (re.++ (re.union (str.to_re "M") (str.to_re "U"))
                  (re.++ (re.* (str.to_re "U")) (re.union (str.to_re "I") a!5))))
      (a!11 (re.++ (str.to_re "I")
                   (re.++ (re.* (str.to_re "U")) (re.union (str.to_re "I") a!5))))
      (a!12 (re.++ (str.to_re "I")
                   (re.++ (re.* (str.to_re "U")) (re.union (str.to_re "M") a!1)))))
(let ((a!3 (re.++ (re.* a!2) (re.union (str.to_re "") (re.++ a!2 (re.* a!2)))))
      (a!7 (re.++ a!2 (re.++ (re.* a!2) (re.union (str.to_re "I") a!6))))
      (a!13 (re.++ (re.union (str.to_re "U") a!12)
                   (re.++ (re.* a!2) (re.union (str.to_re "I") a!6))))
      (a!15 (re.union (str.to_re "")
                      (re.++ (re.union (str.to_re "U") a!12) (re.* a!2)))))
(let ((a!4 (re.++ (re.++ (re.* (str.to_re "U")) (re.union (str.to_re "M") a!1))
                  a!3))
      (a!8 (re.++ (re.* a!2) (re.union (re.union (str.to_re "I") a!6) a!7)))
      (a!14 (re.* (re.union (re.union (str.to_re "M") a!11) a!13))))
(let ((a!9 (re.++ (re.++ (re.* (str.to_re "U")) (re.union (str.to_re "M") a!1))
                  a!8))
      (a!16 (re.++ (re.union (re.union (str.to_re "M") a!11) a!13)
                   (re.++ a!14 a!15))))
(let ((a!10 (re.union (re.++ (re.* (str.to_re "U"))
                             (re.union (str.to_re "I") a!5))
                      a!9)))
(let ((a!17 (re.union a!4 (re.++ a!10 (re.++ a!14 (re.union a!15 a!16))))))
  (str.in_re varin a!17)))))))))
(assert (let ((a!1 (re.union (str.to_re "")
                     (re.++ (str.to_re "U") (re.* (str.to_re "U")))))
      (a!2 (re.++ (str.to_re "U")
                  (re.++ (re.* (str.to_re "U")) (str.to_re "M"))))
      (a!8 (re.++ (str.to_re "U")
                  (re.++ (re.* (str.to_re "U")) (str.to_re "I")))))
(let ((a!3 (re.++ (re.union (str.to_re "M") (str.to_re "U"))
                  (re.++ (re.* (str.to_re "U")) (re.union (str.to_re "M") a!2))))
      (a!4 (re.++ (re.union (str.to_re "M") (str.to_re "U"))
                  (re.++ (re.* (str.to_re "U")) a!1)))
      (a!9 (re.++ (re.union (str.to_re "M") (str.to_re "U"))
                  (re.++ (re.* (str.to_re "U")) (re.union (str.to_re "I") a!8))))
      (a!14 (re.++ (str.to_re "I")
                   (re.++ (re.* (str.to_re "U")) (re.union (str.to_re "I") a!8))))
      (a!15 (re.++ (str.to_re "I")
                   (re.++ (re.* (str.to_re "U")) (re.union (str.to_re "M") a!2))))
      (a!18 (re.++ (str.to_re "I") (re.++ (re.* (str.to_re "U")) a!1))))
(let ((a!5 (re.union a!4 (re.++ a!3 (re.++ (re.* a!3) a!4))))
      (a!10 (re.++ a!3 (re.++ (re.* a!3) (re.union (str.to_re "I") a!9))))
      (a!16 (re.++ (re.union (str.to_re "U") a!15)
                   (re.++ (re.* a!3) (re.union (str.to_re "I") a!9))))
      (a!19 (re.union a!18
                      (re.++ (re.union (str.to_re "U") a!15)
                             (re.++ (re.* a!3) a!4)))))
(let ((a!6 (re.++ (re.++ (re.* (str.to_re "U")) (re.union (str.to_re "M") a!2))
                  (re.++ (re.* a!3) a!5)))
      (a!11 (re.++ (re.* a!3) (re.union (re.union (str.to_re "I") a!9) a!10)))
      (a!17 (re.* (re.union (re.union (str.to_re "M") a!14) a!16))))
(let ((a!7 (re.union (re.++ (re.* (str.to_re "U")) a!1) a!6))
      (a!12 (re.++ (re.++ (re.* (str.to_re "U")) (re.union (str.to_re "M") a!2))
                   a!11))
      (a!20 (re.++ (re.union (re.union (str.to_re "M") a!14) a!16)
                   (re.++ a!17 a!19))))
(let ((a!13 (re.union (re.++ (re.* (str.to_re "U"))
                             (re.union (str.to_re "I") a!8))
                      a!12)))
(let ((a!21 (re.union a!7 (re.++ a!13 (re.++ a!17 (re.union a!19 a!20))))))
  (str.in_re varout a!21)))))))))
(set-info :status unknown)
(check-sat)
(pop 1)
(push 1)
(assert (let ((a!1 (re.* (re.++ (str.to_re "U")
                        (re.union (str.to_re "M") (str.to_re "I")))))
      (a!2 (re.union (re.union (str.to_re "M") (str.to_re "I"))
                     (re.++ (str.to_re "U") (str.to_re "U"))))
      (a!5 (re.union (str.to_re "U")
                     (re.++ (re.union (str.to_re "M") (str.to_re "I"))
                            (str.to_re "U")))))
(let ((a!3 (re.++ (re.++ (str.to_re "U")
                         (re.union (str.to_re "M") (str.to_re "I")))
                  (re.++ a!1 a!2))))
(let ((a!4 (re.union (str.to_re "U")
                     (re.++ (re.union (str.to_re "M") (str.to_re "I"))
                            (re.++ a!1 (re.union a!2 a!3)))))
      (a!6 (re.++ (re.++ (re.union (str.to_re "M") (str.to_re "I"))
                         (re.union (str.to_re "M") (str.to_re "I")))
                  (re.++ a!1 (re.union a!2 a!3)))))
(let ((a!7 (re.union (str.to_re "")
                     (re.++ (re.union a!5 a!6) (re.* (re.union a!5 a!6))))))
(let ((a!8 (re.++ a!4 (re.++ (re.* (re.union a!5 a!6)) a!7))))
  (str.in_re varin a!8)))))))
(assert (let ((a!1 (re.* (re.++ (str.to_re "U")
                        (re.union (str.to_re "M") (str.to_re "I")))))
      (a!5 (re.union (re.union (str.to_re "M") (str.to_re "I"))
                     (re.++ (str.to_re "U") (str.to_re "U"))))
      (a!8 (re.union (str.to_re "U")
                     (re.++ (re.union (str.to_re "M") (str.to_re "I"))
                            (str.to_re "U"))))
      (a!9 (re.++ (re.union (str.to_re "M") (str.to_re "I"))
                  (re.union (str.to_re "M") (str.to_re "I")))))
(let ((a!2 (re.++ (re.++ (str.to_re "U")
                         (re.union (str.to_re "M") (str.to_re "I")))
                  (re.++ a!1 (re.union (str.to_re "") (str.to_re "U")))))
      (a!6 (re.++ (re.++ (str.to_re "U")
                         (re.union (str.to_re "M") (str.to_re "I")))
                  (re.++ a!1 a!5))))
(let ((a!3 (re.++ a!1 (re.union (re.union (str.to_re "") (str.to_re "U")) a!2)))
      (a!7 (re.union (str.to_re "U")
                     (re.++ (re.union (str.to_re "M") (str.to_re "I"))
                            (re.++ a!1 (re.union a!5 a!6)))))
      (a!10 (re.union a!8 (re.++ a!9 (re.++ a!1 (re.union a!5 a!6))))))
(let ((a!4 (re.union (str.to_re "")
                     (re.++ (re.union (str.to_re "M") (str.to_re "I")) a!3)))
      (a!11 (re.++ (re.* a!10)
                   (re.union (re.union (str.to_re "M") (str.to_re "I"))
                             (re.++ a!9 a!3)))))
(let ((a!12 (re.union (re.union (re.union (str.to_re "M") (str.to_re "I"))
                                (re.++ a!9 a!3))
                      (re.++ a!10 a!11))))
(let ((a!13 (re.union a!4 (re.++ a!7 (re.++ (re.* a!10) a!12)))))
  (str.in_re varout a!13))))))))
(set-info :status unknown)
(check-sat)
(pop 1)
(push 1)
(assert (let ((a!1 (re.++ (str.to_re "U")
                  (re.++ (re.* (str.to_re "U"))
                         (re.union (str.to_re "M") (str.to_re "I"))))))
(let ((a!2 (re.++ (re.* (str.to_re "U"))
                  (re.union (re.union (str.to_re "M") (str.to_re "I")) a!1))))
(let ((a!3 (re.++ (re.* (re.++ (str.to_re "U") a!2))
                  (re.union (str.to_re "M") (str.to_re "I")))))
(let ((a!4 (re.union (re.union (str.to_re "M") (str.to_re "I"))
                     (re.++ (re.++ (str.to_re "U") a!2) a!3))))
(let ((a!5 (re.++ (re.* (re.++ (str.to_re "U") a!2)) a!4)))
(let ((a!6 (re.++ (re.++ (re.union (str.to_re "M") (str.to_re "I")) a!2) a!5)))
(let ((a!7 (re.++ (re.union (str.to_re "U") a!6)
                  (re.* (re.union (str.to_re "U") a!6)))))
(let ((a!8 (re.++ (re.* (re.union (str.to_re "U") a!6))
                  (re.union (str.to_re "") a!7))))
  (str.in_re varin (re.++ (re.++ a!2 a!5) a!8)))))))))))
(assert (let ((a!1 (re.union (str.to_re "")
                     (re.++ (str.to_re "U") (re.* (str.to_re "U")))))
      (a!2 (re.++ (str.to_re "U")
                  (re.++ (re.* (str.to_re "U"))
                         (re.union (str.to_re "M") (str.to_re "I"))))))
(let ((a!3 (re.++ (re.* (str.to_re "U"))
                  (re.union (re.union (str.to_re "M") (str.to_re "I")) a!2)))
      (a!4 (re.++ (str.to_re "U") (re.++ (re.* (str.to_re "U")) a!1)))
      (a!13 (re.++ (re.union (str.to_re "M") (str.to_re "I"))
                   (re.++ (re.* (str.to_re "U")) a!1))))
(let ((a!5 (re.++ (re.* (re.++ (str.to_re "U") a!3))
                  (re.union (str.to_re "") a!4)))
      (a!9 (re.++ (re.* (re.++ (str.to_re "U") a!3))
                  (re.union (str.to_re "M") (str.to_re "I")))))
(let ((a!6 (re.union (re.union (str.to_re "") a!4)
                     (re.++ (re.++ (str.to_re "U") a!3) a!5)))
      (a!10 (re.union (re.union (str.to_re "M") (str.to_re "I"))
                      (re.++ (re.++ (str.to_re "U") a!3) a!9))))
(let ((a!7 (re.++ (re.* (re.++ (str.to_re "U") a!3)) a!6))
      (a!11 (re.++ (re.* (re.++ (str.to_re "U") a!3)) a!10)))
(let ((a!8 (re.union (re.++ (re.* (str.to_re "U")) a!1) (re.++ a!3 a!7)))
      (a!12 (re.++ (re.++ (re.union (str.to_re "M") (str.to_re "I")) a!3) a!11))
      (a!14 (re.++ (re.++ (re.union (str.to_re "M") (str.to_re "I")) a!3) a!7)))
(let ((a!15 (re.++ (re.* (re.union (str.to_re "U") a!12)) (re.union a!13 a!14))))
(let ((a!16 (re.union (re.union a!13 a!14)
                      (re.++ (re.union (str.to_re "U") a!12) a!15))))
(let ((a!17 (re.++ (re.* (re.union (str.to_re "U") a!12)) a!16)))
  (str.in_re varout (re.union a!8 (re.++ (re.++ a!3 a!11) a!17)))))))))))))
(set-info :status unknown)
(check-sat)
(pop 1)
(push 1)
(assert (let ((a!1 (re.++ (str.to_re "I")
                  (re.++ (re.* (str.to_re "I")) (str.to_re "U"))))
      (a!2 (re.++ (str.to_re "I")
                  (re.++ (re.* (str.to_re "I")) (str.to_re "M")))))
(let ((a!3 (re.++ (str.to_re "U")
                  (re.++ (re.* (str.to_re "I")) (re.union (str.to_re "M") a!2))))
      (a!4 (re.++ (str.to_re "U")
                  (re.++ (re.* (str.to_re "I")) (re.union (str.to_re "U") a!1))))
      (a!9 (re.++ (re.union (str.to_re "M") (str.to_re "I"))
                  (re.++ (re.* (str.to_re "I")) (re.union (str.to_re "U") a!1))))
      (a!10 (re.++ (re.union (str.to_re "M") (str.to_re "I"))
                   (re.++ (re.* (str.to_re "I")) (re.union (str.to_re "M") a!2)))))
(let ((a!5 (re.++ (re.* a!3)
                  (re.union (re.union (str.to_re "M") (str.to_re "I")) a!4))))
(let ((a!6 (re.union (re.union (re.union (str.to_re "M") (str.to_re "I")) a!4)
                     (re.++ a!3 a!5))))
(let ((a!7 (re.++ (re.++ (re.* (str.to_re "I")) (re.union (str.to_re "M") a!2))
                  (re.++ (re.* a!3) a!6)))
      (a!11 (re.union (re.union (str.to_re "U") a!9)
                      (re.++ a!10 (re.++ (re.* a!3) a!6)))))
(let ((a!8 (re.union (re.++ (re.* (str.to_re "I"))
                            (re.union (str.to_re "U") a!1))
                     a!7))
      (a!12 (re.++ (re.* a!11)
                   (re.union (str.to_re "") (re.++ a!11 (re.* a!11))))))
  (str.in_re varin (re.++ a!8 a!12)))))))))
(assert (let ((a!1 (re.union (str.to_re "")
                     (re.++ (str.to_re "I") (re.* (str.to_re "I")))))
      (a!2 (re.++ (str.to_re "I")
                  (re.++ (re.* (str.to_re "I")) (str.to_re "M"))))
      (a!9 (re.++ (str.to_re "I")
                  (re.++ (re.* (str.to_re "I")) (str.to_re "U")))))
(let ((a!3 (re.++ (str.to_re "U")
                  (re.++ (re.* (str.to_re "I")) (re.union (str.to_re "M") a!2))))
      (a!4 (re.++ (str.to_re "U") (re.++ (re.* (str.to_re "I")) a!1)))
      (a!10 (re.++ (str.to_re "U")
                   (re.++ (re.* (str.to_re "I")) (re.union (str.to_re "U") a!9))))
      (a!15 (re.++ (re.union (str.to_re "M") (str.to_re "I"))
                   (re.++ (re.* (str.to_re "I")) (re.union (str.to_re "U") a!9))))
      (a!16 (re.++ (re.union (str.to_re "M") (str.to_re "I"))
                   (re.++ (re.* (str.to_re "I")) (re.union (str.to_re "M") a!2))))
      (a!18 (re.++ (re.union (str.to_re "M") (str.to_re "I"))
                   (re.++ (re.* (str.to_re "I")) a!1))))
(let ((a!5 (re.++ a!3 (re.++ (re.* a!3) (re.union (str.to_re "") a!4))))
      (a!11 (re.++ (re.* a!3)
                   (re.union (re.union (str.to_re "M") (str.to_re "I")) a!10))))
(let ((a!6 (re.++ (re.* a!3) (re.union (re.union (str.to_re "") a!4) a!5)))
      (a!12 (re.union (re.union (re.union (str.to_re "M") (str.to_re "I")) a!10)
                      (re.++ a!3 a!11))))
(let ((a!7 (re.++ (re.++ (re.* (str.to_re "I")) (re.union (str.to_re "M") a!2))
                  a!6))
      (a!13 (re.++ (re.++ (re.* (str.to_re "I")) (re.union (str.to_re "M") a!2))
                   (re.++ (re.* a!3) a!12)))
      (a!17 (re.union (re.union (str.to_re "U") a!15)
                      (re.++ a!16 (re.++ (re.* a!3) a!12)))))
(let ((a!8 (re.union (re.++ (re.* (str.to_re "I")) a!1) a!7))
      (a!14 (re.union (re.++ (re.* (str.to_re "I"))
                             (re.union (str.to_re "U") a!9))
                      a!13))
      (a!19 (re.++ a!17 (re.++ (re.* a!17) (re.union a!18 (re.++ a!16 a!6))))))
(let ((a!20 (re.++ (re.* a!17) (re.union (re.union a!18 (re.++ a!16 a!6)) a!19))))
  (str.in_re varout (re.union a!8 (re.++ a!14 a!20)))))))))))
(set-info :status unknown)
(check-sat)
(pop 1)
(push 1)
(assert (let ((a!1 (re.++ (str.to_re "I")
                  (re.++ (re.* (str.to_re "I")) (str.to_re "U"))))
      (a!2 (re.++ (str.to_re "I")
                  (re.++ (re.* (str.to_re "I")) (str.to_re "M")))))
(let ((a!3 (re.++ (str.to_re "U")
                  (re.++ (re.* (str.to_re "I")) (re.union (str.to_re "M") a!2))))
      (a!4 (re.++ (str.to_re "U")
                  (re.++ (re.* (str.to_re "I")) (re.union (str.to_re "U") a!1))))
      (a!9 (re.++ (str.to_re "I")
                  (re.++ (re.* (str.to_re "I")) (re.union (str.to_re "U") a!1))))
      (a!10 (re.++ (str.to_re "I")
                   (re.++ (re.* (str.to_re "I")) (re.union (str.to_re "M") a!2)))))
(let ((a!5 (re.++ (re.* a!3)
                  (re.union (re.union (str.to_re "M") (str.to_re "I")) a!4))))
(let ((a!6 (re.union (re.union (re.union (str.to_re "M") (str.to_re "I")) a!4)
                     (re.++ a!3 a!5)))
      (a!11 (re.union (re.union (str.to_re "U") a!9)
                      (re.++ (re.union (str.to_re "M") a!10) a!5))))
(let ((a!7 (re.++ (re.++ (re.* (str.to_re "I")) (re.union (str.to_re "M") a!2))
                  (re.++ (re.* a!3) a!6)))
      (a!12 (re.++ (re.* a!11)
                   (re.union (str.to_re "") (re.++ a!11 (re.* a!11))))))
(let ((a!8 (re.union (re.++ (re.* (str.to_re "I"))
                            (re.union (str.to_re "U") a!1))
                     a!7)))
  (str.in_re varin (re.++ a!8 a!12)))))))))
(assert (let ((a!1 (re.union (str.to_re "")
                     (re.++ (str.to_re "I") (re.* (str.to_re "I")))))
      (a!2 (re.++ (str.to_re "I")
                  (re.++ (re.* (str.to_re "I")) (str.to_re "M"))))
      (a!9 (re.++ (str.to_re "I")
                  (re.++ (re.* (str.to_re "I")) (str.to_re "U")))))
(let ((a!3 (re.++ (str.to_re "U")
                  (re.++ (re.* (str.to_re "I")) (re.union (str.to_re "M") a!2))))
      (a!4 (re.++ (str.to_re "U") (re.++ (re.* (str.to_re "I")) a!1)))
      (a!10 (re.++ (str.to_re "U")
                   (re.++ (re.* (str.to_re "I")) (re.union (str.to_re "U") a!9))))
      (a!15 (re.++ (str.to_re "I")
                   (re.++ (re.* (str.to_re "I")) (re.union (str.to_re "U") a!9))))
      (a!16 (re.++ (str.to_re "I")
                   (re.++ (re.* (str.to_re "I")) (re.union (str.to_re "M") a!2))))
      (a!18 (re.++ (str.to_re "I") (re.++ (re.* (str.to_re "I")) a!1))))
(let ((a!5 (re.++ a!3 (re.++ (re.* a!3) (re.union (str.to_re "") a!4))))
      (a!11 (re.++ (re.* a!3)
                   (re.union (re.union (str.to_re "M") (str.to_re "I")) a!10)))
      (a!19 (re.++ (re.union (str.to_re "M") a!16)
                   (re.++ (re.* a!3) (re.union (str.to_re "") a!4)))))
(let ((a!6 (re.++ (re.* a!3) (re.union (re.union (str.to_re "") a!4) a!5)))
      (a!12 (re.union (re.union (re.union (str.to_re "M") (str.to_re "I")) a!10)
                      (re.++ a!3 a!11)))
      (a!17 (re.union (re.union (str.to_re "U") a!15)
                      (re.++ (re.union (str.to_re "M") a!16) a!11))))
(let ((a!7 (re.++ (re.++ (re.* (str.to_re "I")) (re.union (str.to_re "M") a!2))
                  a!6))
      (a!13 (re.++ (re.++ (re.* (str.to_re "I")) (re.union (str.to_re "M") a!2))
                   (re.++ (re.* a!3) a!12)))
      (a!20 (re.union (re.union a!18 a!19)
                      (re.++ a!17 (re.++ (re.* a!17) (re.union a!18 a!19))))))
(let ((a!8 (re.union (re.++ (re.* (str.to_re "I")) a!1) a!7))
      (a!14 (re.union (re.++ (re.* (str.to_re "I"))
                             (re.union (str.to_re "U") a!9))
                      a!13)))
(let ((a!21 (re.union a!8 (re.++ a!14 (re.++ (re.* a!17) a!20)))))
  (str.in_re varout a!21)))))))))
(set-info :status unknown)
(check-sat)
(pop 1)
(push 1)
(assert (let ((a!1 (re.++ (str.to_re "I")
                  (re.++ (re.* (str.to_re "I")) (str.to_re "U"))))
      (a!2 (re.++ (str.to_re "I")
                  (re.++ (re.* (str.to_re "I")) (str.to_re "M")))))
(let ((a!3 (re.++ (str.to_re "U")
                  (re.++ (re.* (str.to_re "I")) (re.union (str.to_re "M") a!2))))
      (a!4 (re.++ (str.to_re "U")
                  (re.++ (re.* (str.to_re "I")) (re.union (str.to_re "U") a!1))))
      (a!10 (re.++ (str.to_re "I")
                   (re.++ (re.* (str.to_re "I")) (re.union (str.to_re "U") a!1))))
      (a!11 (re.++ (str.to_re "I")
                   (re.++ (re.* (str.to_re "I")) (re.union (str.to_re "M") a!2)))))
(let ((a!5 (re.++ (re.* (re.union (str.to_re "M") a!3))
                  (re.union (str.to_re "I") a!4))))
(let ((a!6 (re.union (re.union (str.to_re "I") a!4)
                     (re.++ (re.union (str.to_re "M") a!3) a!5))))
(let ((a!7 (re.++ (re.* (re.union (str.to_re "M") a!3)) a!6)))
(let ((a!8 (re.++ (re.++ (re.* (str.to_re "I")) (re.union (str.to_re "M") a!2))
                  a!7))
      (a!12 (re.union (re.union (str.to_re "U") a!10)
                      (re.++ (re.union (str.to_re "M") a!11) a!7))))
(let ((a!9 (re.union (re.++ (re.* (str.to_re "I"))
                            (re.union (str.to_re "U") a!1))
                     a!8))
      (a!13 (re.++ (re.* a!12)
                   (re.union (str.to_re "") (re.++ a!12 (re.* a!12))))))
  (str.in_re varin (re.++ a!9 a!13))))))))))
(assert (let ((a!1 (re.union (str.to_re "")
                     (re.++ (str.to_re "I") (re.* (str.to_re "I")))))
      (a!2 (re.++ (str.to_re "I")
                  (re.++ (re.* (str.to_re "I")) (str.to_re "M"))))
      (a!10 (re.++ (str.to_re "I")
                   (re.++ (re.* (str.to_re "I")) (str.to_re "U")))))
(let ((a!3 (re.++ (str.to_re "U")
                  (re.++ (re.* (str.to_re "I")) (re.union (str.to_re "M") a!2))))
      (a!4 (re.++ (str.to_re "U") (re.++ (re.* (str.to_re "I")) a!1)))
      (a!11 (re.++ (str.to_re "U")
                   (re.++ (re.* (str.to_re "I"))
                          (re.union (str.to_re "U") a!10))))
      (a!17 (re.++ (str.to_re "I")
                   (re.++ (re.* (str.to_re "I"))
                          (re.union (str.to_re "U") a!10))))
      (a!18 (re.++ (str.to_re "I")
                   (re.++ (re.* (str.to_re "I")) (re.union (str.to_re "M") a!2))))
      (a!20 (re.++ (str.to_re "I") (re.++ (re.* (str.to_re "I")) a!1))))
(let ((a!5 (re.++ (re.* (re.union (str.to_re "M") a!3))
                  (re.union (str.to_re "") a!4)))
      (a!12 (re.++ (re.* (re.union (str.to_re "M") a!3))
                   (re.union (str.to_re "I") a!11))))
(let ((a!6 (re.union (re.union (str.to_re "") a!4)
                     (re.++ (re.union (str.to_re "M") a!3) a!5)))
      (a!13 (re.union (re.union (str.to_re "I") a!11)
                      (re.++ (re.union (str.to_re "M") a!3) a!12))))
(let ((a!7 (re.++ (re.* (re.union (str.to_re "M") a!3)) a!6))
      (a!14 (re.++ (re.* (re.union (str.to_re "M") a!3)) a!13)))
(let ((a!8 (re.++ (re.++ (re.* (str.to_re "I")) (re.union (str.to_re "M") a!2))
                  a!7))
      (a!15 (re.++ (re.++ (re.* (str.to_re "I")) (re.union (str.to_re "M") a!2))
                   a!14))
      (a!19 (re.union (re.union (str.to_re "U") a!17)
                      (re.++ (re.union (str.to_re "M") a!18) a!14)))
      (a!21 (re.union a!20 (re.++ (re.union (str.to_re "M") a!18) a!7))))
(let ((a!9 (re.union (re.++ (re.* (str.to_re "I")) a!1) a!8))
      (a!16 (re.union (re.++ (re.* (str.to_re "I"))
                             (re.union (str.to_re "U") a!10))
                      a!15))
      (a!22 (re.union a!21 (re.++ a!19 (re.++ (re.* a!19) a!21)))))
(let ((a!23 (re.union a!9 (re.++ a!16 (re.++ (re.* a!19) a!22)))))
  (str.in_re varout a!23))))))))))
(set-info :status unknown)
(check-sat)
(pop 1)
(push 1)
(assert (let ((a!1 (re.union (str.to_re "")
                     (re.++ (str.to_re "U") (re.* (str.to_re "U")))))
      (a!2 (re.++ (str.to_re "U")
                  (re.++ (re.* (str.to_re "U"))
                         (re.union (str.to_re "M") (str.to_re "I")))))
      (a!4 (re.++ (re.* (re.union (str.to_re "M") (str.to_re "U")))
                  (str.to_re "I"))))
(let ((a!3 (re.++ (re.* (str.to_re "U"))
                  (re.union (re.union (str.to_re "M") (str.to_re "I")) a!2)))
      (a!5 (re.union (str.to_re "I")
                     (re.++ (re.union (str.to_re "M") (str.to_re "U")) a!4)))
      (a!8 (re.++ (str.to_re "I") (re.++ (re.* (str.to_re "U")) a!1))))
(let ((a!6 (re.++ (re.* (re.union (str.to_re "M") (str.to_re "U"))) a!5)))
(let ((a!7 (re.++ (re.union (str.to_re "M") (re.++ (str.to_re "I") a!3)) a!6)))
(let ((a!9 (re.++ (re.* (re.union (str.to_re "U") a!7))
                  (re.union (str.to_re "") a!8))))
(let ((a!10 (re.union (re.union (str.to_re "") a!8)
                      (re.++ (re.union (str.to_re "U") a!7) a!9))))
(let ((a!11 (re.++ (re.* (re.union (str.to_re "U") a!7)) a!10)))
(let ((a!12 (re.union (re.++ (re.* (str.to_re "U")) a!1)
                      (re.++ (re.++ a!3 a!6) a!11))))
  (str.in_re varin a!12))))))))))
(assert (let ((a!1 (re.++ (str.to_re "U")
                  (re.++ (re.* (str.to_re "U"))
                         (re.union (str.to_re "M") (str.to_re "I")))))
      (a!3 (re.++ (re.union (str.to_re "M") (str.to_re "U"))
                  (re.* (re.union (str.to_re "M") (str.to_re "U")))))
      (a!5 (re.++ (re.* (re.union (str.to_re "M") (str.to_re "U")))
                  (str.to_re "I"))))
(let ((a!2 (re.++ (re.* (str.to_re "U"))
                  (re.union (re.union (str.to_re "M") (str.to_re "I")) a!1)))
      (a!4 (re.++ (re.* (re.union (str.to_re "M") (str.to_re "U")))
                  (re.union (str.to_re "") a!3)))
      (a!6 (re.union (str.to_re "I")
                     (re.++ (re.union (str.to_re "M") (str.to_re "U")) a!5))))
(let ((a!7 (re.++ (re.* (re.union (str.to_re "M") (str.to_re "U"))) a!6))
      (a!9 (re.++ (re.union (str.to_re "M") (re.++ (str.to_re "I") a!2)) a!4)))
(let ((a!8 (re.++ (re.union (str.to_re "M") (re.++ (str.to_re "I") a!2)) a!7)))
(let ((a!10 (re.++ (re.* (re.union (str.to_re "U") a!8)) a!9)))
(let ((a!11 (re.union a!9 (re.++ (re.union (str.to_re "U") a!8) a!10))))
(let ((a!12 (re.++ (re.* (re.union (str.to_re "U") a!8)) a!11)))
  (str.in_re varout (re.union (re.++ a!2 a!4) (re.++ (re.++ a!2 a!7) a!12)))))))))))
(set-info :status unknown)
(check-sat)
(pop 1)
(check-sat)
(exit)
